BEGIN IONS
TITLE=0
PEPMASS=348.939880371094
PRECURSOR_TYPE=[M-H]-
MSLEVEL=2
PRECURSOR_MZ=348.939880371094
SOURCE_INSTRUMENT=HCD
COLLISION_ENERGY=NCE=37.5%
NAME=Perfluoro-1-pentanesulfonate(PFPeS)
CANONICALSMILES=O=S(=O)(O)C(F)(F)C(F)(F)C(F)(F)C(F)(F)C(F)(F)F
RANDOMIZEDSMILES=FC(C(F)(F)F)(F)C(F)(F)C(C(F)(F)S(=O)(O)=O)(F)F
INCHIKEY=ACEKLXZRZOWKRY-UHFFFAOYSA-N
CENTROIDED=True
PEAKSCOUNT=8
POLARITY=-
RETENTIONTIME=19.200499999999998
LOWMZ=58.876182556152
HIGHMZ=348.939605712891
BASEPEAKMZ=79.95733927
BASEPEAKINTENSITY=53235.555
TOTIONCURRENT=146635.94
MSINSTRUMENTID=1
PRECURSORSCANNUM=3841
PRECURSORINTENSITY=579425.1933594
WINDOWWIDENESS=0.69999998808
ID=3842
58.87618 3232.8
64.34223 3842.8
79.95734 53235.6
92.12798 12828.0
98.95578 21148.0
211.85915 4318.9
285.76031 3895.6
348.93961 44134.3
END IONS